c DIMACS file CNF 3-SAT 
p cnf 6 23
6 -5 6 0 
1 -2 2 0 
-6 -5 -4 0 
-6 -6 6 0 
-5 4 -5 0 
1 4 -1 0 
-6 3 -4 0 
-4 -2 5 0 
-3 -5 -2 0 
1 -4 2 0 
3 5 -2 0 
6 -1 2 0 
-4 1 2 0 
-6 4 2 0 
-5 5 4 0 
4 6 1 0 
-6 2 -6 0 
-4 -4 1 0 
1 1 -3 0 
-5 3 -5 0 
3 -6 4 0 
5 -5 -6 0 
1 -5 -5 0